#Equilibrate system with a single Fe(II) ion
units		real
if "$(extract_setting(world_size) % 2) == 0" then "processors * * 2"
dimension	3
boundary	p p p
atom_style	full

pair_style	hybrid/overlay lj/cut/coul/long 15.0 born 15.0 

bond_style	harmonic
angle_style	harmonic

read_data	ferrous_restart.txt

#Oxygen
pair_coeff	1 1 lj/cut/coul/long 0.1553 3.166
#Hydorgen
pair_coeff	2 2 lj/cut/coul/long 0.0 0.0
pair_coeff	1 2 lj/cut/coul/long 0.0 1.0
# Carbon
pair_coeff	3 3 lj/cut/coul/long 0.086 3.4
# Chloride
pair_coeff	4 4 lj/cut/coul/long 0.00655353728 5.029
# PARAMETERS FOR FERROUS/FERRIC IONS:
pair_coeff	5 5 lj/cut/coul/long 0.00395662 1.284
pair_coeff	1 5 lj/cut/coul/long 0.114012 1.7
pair_coeff	1 5 born 15267.3055 0.305 0.0 288.41625 166.88429
# IRON CHLORIDE INTERACTIONS
pair_coeff	4 5 born 335416.36408 0.23518987 0.0 0.0 0.0
# ALL THE REMAINING MIXED COEFFCIENTS WILL BE GIVEN BY SIMPLE LJ LORENTZ-BERTHELOT MIXING RULES
pair_coeff	1 3 lj/cut/coul/long 0.11557 3.283 
pair_coeff	1 4 lj/cut/coul/long 0.031902 4.0975
pair_coeff	3 4 lj/cut/coul/long 0.02374 4.2145
pair_coeff	3 5 lj/cut/coul/long 0.018446 2.342 

group		oxy type 1
group		hyd type 2
group		carb type 3
group		water union oxy hyd 
group		anions type 4
group		cation type 5 
group		ions union anions cation
group		solution union water ions
group		eletop molecule 2311
group		elebot molecule 2312

bond_coeff	1 100 1
angle_coeff	1 100 109.47

#kspace_style	pppm 1.0e-5
kspace_style	pppm/electrode 1.0e-7
#kspace_modify	slab 8.0 gewald 0.1740536 
dielectric	1.0

neighbor	2.0 bin
neigh_modify	check yes delay 0 
neigh_modify	exclude group carb carb

timestep	1.0
run_style	verlet

variable	q atom q
compute		myTemp solution temp
compute		qtop eletop reduce sum v_q
compute		qbot elebot reduce sum v_q

#Compute potential on iron ion
compute         pe_iron cation pe/atom pair kspace
compute         pe_Fe_scalar cation reduce sum c_pe_iron
compute         pair_iron cation pe/atom pair
compute         pair_Fe_scalar cation reduce sum c_pair_iron
compute         kspace_iron cation pe/atom kspace
compute         kspace_Fe_scalar cation reduce sum c_kspace_iron

#minimize	1e-4 1e-5 1000 10000

fix 		thermostat solution langevin 300 300 2000.0 895 # 895 = random seed
fix 		water_geo_freeze water shake 1e-12 200000 0 b 1 a 1
fix 		ensemble solution nve 
fix		fxconp eletop electrode/conp 0.0 1.979 couple elebot 0.0 symm on etypes 3 ffield yes 
fix_modify	fxconp tf 3 0.0 9.0
fix		um_sam cation spring tether 25 NULL NULL -30.0 0.0

compute		Fe_coord cation com

dump		4 all custom 1000 trajectory.dump id mol type q x y z ix iy iz
dump_modify	4 sort id		## sort atom according to id 
dump_modify 	4 pbc yes		## remap atoms via pbc
dump_modify	4 format line "%4d %4d %4d %10f %22.18f %22.18f %22.18f %4d %4d %4d"

thermo		1000
thermo_style	custom step c_myTemp pe c_pe_Fe_scalar c_pair_Fe_scalar c_kspace_Fe_scalar c_qtop c_qbot c_Fe_coord[3]

log		ferrous.log

#restart		50000 binary_restarts/first.restart binary_restarts/second.restart

run		2000000 
write_data	final_config.txt
